Solver command line: ['C:\\Users\\Gabriela Escobar\\anaconda3\\envs\\pyomo_env\\Library\\bin\\glpsol.exe', '--write', 'C:\\Users\\GABRIE~1\\AppData\\Local\\Temp\\tmp1bf0sfbw.glpk.raw', '--wglp', 'C:\\Users\\GABRIE~1\\AppData\\Local\\Temp\\tmpcsgpolrs.glpk.glp', '--cpxlp', 'C:\\Users\\GABRIE~1\\AppData\\Local\\Temp\\tmp5z3jjvwd.pyomo.lp']

GLPSOL--GLPK LP/MIP Solver 5.0
Parameter(s) specified in the command line:
 --write C:\Users\GABRIE~1\AppData\Local\Temp\tmp1bf0sfbw.glpk.raw --wglp
 C:\Users\GABRIE~1\AppData\Local\Temp\tmpcsgpolrs.glpk.glp --cpxlp C:\Users\GABRIE~1\AppData\Local\Temp\tmp5z3jjvwd.pyomo.lp
Reading problem data from 'C:\Users\GABRIE~1\AppData\Local\Temp\tmp5z3jjvwd.pyomo.lp'...
91 rows, 91 columns, 8101 non-zeros
8562 lines were read
Writing problem data to 'C:\Users\GABRIE~1\AppData\Local\Temp\tmpcsgpolrs.glpk.glp'...
8467 lines were written
GLPK Simplex Optimizer 5.0
91 rows, 91 columns, 8101 non-zeros
Preprocessing...
90 rows, 90 columns, 8100 non-zeros
Scaling...
 A: min|aij| =  7.165e-04  max|aij| =  4.999e+00  ratio =  6.978e+03
GM: min|aij| =  1.911e-02  max|aij| =  5.233e+01  ratio =  2.738e+03
EQ: min|aij| =  3.699e-04  max|aij| =  1.000e+00  ratio =  2.703e+03
Constructing initial basis...
Size of triangular part is 90
*     0: obj =  -0.000000000e+00 inf =   0.000e+00 (90)
*    59: obj =   3.733537263e+02 inf =   0.000e+00 (0)
OPTIMAL LP SOLUTION FOUND
Time used:   0.0 secs
Memory used: 1.4 Mb (1463132 bytes)
Writing basic solution to 'C:\Users\GABRIE~1\AppData\Local\Temp\tmp1bf0sfbw.glpk.raw'...
191 lines were written

